 vasp.5.4.1 24Jun15 (build May 02 2016 14:41:14) complex

 executed on           IFC91_ompi date 2022.05.07  11:02:49

 INCAR:
 POTCAR:   PAW_PBE Si 05Jan2001

 POTCAR:   PAW_PBE Si 05Jan2001
   VRHFIN =Si: s2p2

   TITEL  = PAW_PBE Si 05Jan2001
   POMASS =   28.085; ZVAL   =    4.000    mass and valenz
   ENMAX  =  245.345; ENMIN  =  184.009 eV
   QCUT   =   -4.246; QGAM   =    8.493    optimization parameters

   Description
     l     E      TYP  RCUT    TYP  RCUT
     0   .000     23  1.900
     0   .000     23  1.900
     1   .000     23  1.900
     1   .000     23  1.900
     2   .000      7  1.900

 PAW_PBE Si 05Jan2001                   :

 POSCAR: FCC Silicon
  positions in cartesian coordinates
 exchange correlation table for  LEXCH =        8
   RHO(1)=    0.500       N(1)  =     2000
   RHO(2)=  100.500       N(2)  =     4000

 ion  position               nearest neighbor table
   1  0.000  0.000  0.000-

  LATTYP: Found a face centered cubic cell.
 ALAT       =     3.9000000000

  Lattice vectors:

 A1 = (   1.9500000000,   1.9500000000,   0.0000000000)
 A2 = (   0.0000000000,   1.9500000000,   1.9500000000)
 A3 = (   1.9500000000,   0.0000000000,   1.9500000000)

Analysis of symmetry for initial positions (statically):
 Subroutine PRICEL returns:
 Original cell was already a primitive cell.

 Routine SETGRP: Setting up the symmetry group for a
 face centered cubic supercell.

 Subroutine GETGRP returns: Found 48 space group operations
 (whereof 48 operations were pure point group operations)
 out of a pool of 48 trial point group operations.

The static configuration has the point symmetry O_h .

Analysis of symmetry for dynamics (positions and initial velocities):
 Subroutine PRICEL returns:
 Original cell was already a primitive cell.

 Routine SETGRP: Setting up the symmetry group for a
 face centered cubic supercell.

 Subroutine GETGRP returns: Found 48 space group operations
 (whereof 48 operations were pure point group operations)
 out of a pool of 48 trial point group operations.

The dynamic configuration has the point symmetry O_h .

 KPOINTS: K-points

Automatic generation of k-mesh.
Space group operators:
 irot       det(A)        alpha          n_x          n_y          n_z        tau_x        tau_y        tau_z
    1     1.000000     0.000000     1.000000     0.000000     0.000000     0.000000     0.000000     0.000000
    2    -1.000000     0.000000     1.000000     0.000000     0.000000     0.000000     0.000000     0.000000
    3     1.000000   120.000000    -0.577350    -0.577350    -0.577350     0.000000     0.000000     0.000000
    4    -1.000000   120.000000    -0.577350    -0.577350    -0.577350     0.000000     0.000000     0.000000
    5     1.000000   120.000000     0.577350     0.577350     0.577350     0.000000     0.000000     0.000000
    6    -1.000000   120.000000     0.577350     0.577350     0.577350     0.000000     0.000000     0.000000
    7     1.000000    90.000000     0.000000    -1.000000     0.000000     0.000000     0.000000     0.000000
    8    -1.000000    90.000000     0.000000    -1.000000     0.000000     0.000000     0.000000     0.000000
    9     1.000000   180.000000     0.707107     0.707107     0.000000     0.000000     0.000000     0.000000
   10    -1.000000   180.000000     0.707107     0.707107     0.000000     0.000000     0.000000     0.000000
   11     1.000000    90.000000     1.000000     0.000000     0.000000     0.000000     0.000000     0.000000
   12    -1.000000    90.000000     1.000000     0.000000     0.000000     0.000000     0.000000     0.000000
   13     1.000000   180.000000     0.000000     1.000000     0.000000     0.000000     0.000000     0.000000
   14    -1.000000   180.000000     0.000000     1.000000     0.000000     0.000000     0.000000     0.000000
   15     1.000000   120.000000     0.577350     0.577350    -0.577350     0.000000     0.000000     0.000000
   16    -1.000000   120.000000     0.577350     0.577350    -0.577350     0.000000     0.000000     0.000000
   17     1.000000   120.000000     0.577350    -0.577350    -0.577350     0.000000     0.000000     0.000000
   18    -1.000000   120.000000     0.577350    -0.577350    -0.577350     0.000000     0.000000     0.000000
   19     1.000000    90.000000     0.000000     1.000000     0.000000     0.000000     0.000000     0.000000
   20    -1.000000    90.000000     0.000000     1.000000     0.000000     0.000000     0.000000     0.000000
   21     1.000000    90.000000     0.000000     0.000000    -1.000000     0.000000     0.000000     0.000000
   22    -1.000000    90.000000     0.000000     0.000000    -1.000000     0.000000     0.000000     0.000000
   23     1.000000   180.000000     0.000000     0.707107     0.707107     0.000000     0.000000     0.000000
   24    -1.000000   180.000000     0.000000     0.707107     0.707107     0.000000     0.000000     0.000000
   25     1.000000   120.000000    -0.577350     0.577350     0.577350     0.000000     0.000000     0.000000
   26    -1.000000   120.000000    -0.577350     0.577350     0.577350     0.000000     0.000000     0.000000
   27     1.000000   120.000000    -0.577350     0.577350    -0.577350     0.000000     0.000000     0.000000
   28    -1.000000   120.000000    -0.577350     0.577350    -0.577350     0.000000     0.000000     0.000000
   29     1.000000   179.999999     0.000000     0.000000     1.000000     0.000000     0.000000     0.000000
   30    -1.000000   179.999999     0.000000     0.000000     1.000000     0.000000     0.000000     0.000000
   31     1.000000    90.000000    -1.000000     0.000000     0.000000     0.000000     0.000000     0.000000
   32    -1.000000    90.000000    -1.000000     0.000000     0.000000     0.000000     0.000000     0.000000
   33     1.000000   180.000000     0.707107     0.000000     0.707107     0.000000     0.000000     0.000000
   34    -1.000000   180.000000     0.707107     0.000000     0.707107     0.000000     0.000000     0.000000
   35     1.000000    90.000000     0.000000     0.000000     1.000000     0.000000     0.000000     0.000000
   36    -1.000000    90.000000     0.000000     0.000000     1.000000     0.000000     0.000000     0.000000
   37     1.000000   120.000000    -0.577350    -0.577350     0.577350     0.000000     0.000000     0.000000
   38    -1.000000   120.000000    -0.577350    -0.577350     0.577350     0.000000     0.000000     0.000000
   39     1.000000   180.000000     1.000000     0.000000     0.000000     0.000000     0.000000     0.000000
   40    -1.000000   180.000000     1.000000     0.000000     0.000000     0.000000     0.000000     0.000000
   41     1.000000   120.000000     0.577350    -0.577350     0.577350     0.000000     0.000000     0.000000
   42    -1.000000   120.000000     0.577350    -0.577350     0.577350     0.000000     0.000000     0.000000
   43     1.000000   180.000000     0.707107    -0.707107     0.000000     0.000000     0.000000     0.000000
   44    -1.000000   180.000000     0.707107    -0.707107     0.000000     0.000000     0.000000     0.000000
   45     1.000000   180.000000     0.707107     0.000000    -0.707107     0.000000     0.000000     0.000000
   46    -1.000000   180.000000     0.707107     0.000000    -0.707107     0.000000     0.000000     0.000000
   47     1.000000   180.000000     0.000000    -0.707107     0.707107     0.000000     0.000000     0.000000
   48    -1.000000   180.000000     0.000000    -0.707107     0.707107     0.000000     0.000000     0.000000

 Subroutine IBZKPT returns following result:

 Found    120 irreducible k-points:

 Following reciprocal coordinates:
            Coordinates               Weight
  0.000000  0.000000  0.000000      1.000000
  0.066667  0.000000  0.000000      8.000000
  0.133333  0.000000  0.000000      8.000000
  0.200000  0.000000  0.000000      8.000000
  0.266667  0.000000  0.000000      8.000000
  0.333333  0.000000  0.000000      8.000000
  0.400000  0.000000  0.000000      8.000000
  0.466667  0.000000  0.000000      8.000000
  0.066667  0.066667  0.000000      6.000000
  0.133333  0.066667  0.000000     24.000000
  0.200000  0.066667  0.000000     24.000000
  0.266667  0.066667  0.000000     24.000000
  0.333333  0.066667  0.000000     24.000000
  0.400000  0.066667  0.000000     24.000000
  0.466667  0.066667  0.000000     24.000000
 -0.466667  0.066667  0.000000     24.000000
 -0.400000  0.066667  0.000000     24.000000
 -0.333333  0.066667  0.000000     24.000000
 -0.266667  0.066667  0.000000     24.000000
 -0.200000  0.066667  0.000000     24.000000
 -0.133333  0.066667  0.000000     24.000000
 -0.066667  0.066667  0.000000     12.000000
  0.133333  0.133333  0.000000      6.000000
  0.200000  0.133333  0.000000     24.000000
  0.266667  0.133333  0.000000     24.000000
  0.333333  0.133333  0.000000     24.000000
  0.400000  0.133333  0.000000     24.000000
  0.466667  0.133333  0.000000     24.000000
 -0.466667  0.133333  0.000000     24.000000
 -0.400000  0.133333  0.000000     24.000000
 -0.333333  0.133333  0.000000     24.000000
 -0.266667  0.133333  0.000000     24.000000
 -0.200000  0.133333  0.000000     24.000000
 -0.133333  0.133333  0.000000     12.000000
  0.200000  0.200000  0.000000      6.000000
  0.266667  0.200000  0.000000     24.000000
  0.333333  0.200000  0.000000     24.000000
  0.400000  0.200000  0.000000     24.000000
  0.466667  0.200000  0.000000     24.000000
 -0.466667  0.200000  0.000000     24.000000
 -0.400000  0.200000  0.000000     24.000000
 -0.333333  0.200000  0.000000     24.000000
 -0.266667  0.200000  0.000000     24.000000
 -0.200000  0.200000  0.000000     12.000000
  0.266667  0.266667  0.000000      6.000000
  0.333333  0.266667  0.000000     24.000000
  0.400000  0.266667  0.000000     24.000000
  0.466667  0.266667  0.000000     24.000000
 -0.466667  0.266667  0.000000     24.000000
 -0.400000  0.266667  0.000000     24.000000
 -0.333333  0.266667  0.000000     24.000000
 -0.266667  0.266667  0.000000     12.000000
  0.333333  0.333333  0.000000      6.000000
  0.400000  0.333333  0.000000     24.000000
  0.466667  0.333333  0.000000     24.000000
 -0.466667  0.333333  0.000000     24.000000
 -0.400000  0.333333  0.000000     24.000000
 -0.333333  0.333333  0.000000     12.000000
  0.400000  0.400000  0.000000      6.000000
  0.466667  0.400000  0.000000     24.000000
[...]
 -0.466667  0.333333  0.133333     48.000000
 -0.400000  0.333333  0.133333     48.000000
 -0.333333  0.333333  0.133333     48.000000
 -0.266667  0.333333  0.133333     48.000000
 -0.200000  0.333333  0.133333     24.000000
 -0.466667  0.400000  0.133333     24.000000
 -0.400000  0.400000  0.133333     48.000000
 -0.333333  0.400000  0.133333     48.000000
 -0.266667  0.400000  0.133333     24.000000
 -0.400000  0.466667  0.133333     24.000000
 -0.333333  0.466667  0.133333     24.000000
 -0.400000  0.400000  0.200000     24.000000
 -0.333333  0.400000  0.200000     48.000000
 -0.333333  0.466667  0.200000     24.000000
 -0.266667  0.466667  0.200000     24.000000

 Following cartesian coordinates:
            Coordinates               Weight
[...]
   0.20000000  0.13333333  0.00000000       0.007
   0.26666667  0.13333333  0.00000000       0.007
   0.33333333  0.13333333  0.00000000       0.007
   0.40000000  0.13333333  0.00000000       0.007
   0.46666667  0.13333333  0.00000000       0.007
  -0.46666667  0.13333333  0.00000000       0.007
  -0.40000000  0.13333333  0.00000000       0.007
  -0.33333333  0.13333333  0.00000000       0.007
  -0.26666667  0.13333333  0.00000000       0.007
  -0.20000000  0.13333333  0.00000000       0.007
  -0.13333333  0.13333333  0.00000000       0.004
   0.20000000  0.20000000  0.00000000       0.002
   0.26666667  0.20000000  0.00000000       0.007
   0.33333333  0.20000000  0.00000000       0.007
   0.40000000  0.20000000  0.00000000       0.007
   0.46666667  0.20000000  0.00000000       0.007
  -0.46666667  0.20000000  0.00000000       0.007
  -0.40000000  0.20000000  0.00000000       0.007
  -0.33333333  0.20000000  0.00000000       0.007
  -0.26666667  0.20000000  0.00000000       0.007
  -0.20000000  0.20000000  0.00000000       0.004
   0.26666667  0.26666667  0.00000000       0.002
   0.33333333  0.26666667  0.00000000       0.007
   0.40000000  0.26666667  0.00000000       0.007
   0.46666667  0.26666667  0.00000000       0.007
  -0.46666667  0.26666667  0.00000000       0.007
  -0.40000000  0.26666667  0.00000000       0.007
  -0.33333333  0.26666667  0.00000000       0.007
  -0.26666667  0.26666667  0.00000000       0.004
   0.33333333  0.33333333  0.00000000       0.002
   0.40000000  0.33333333  0.00000000       0.007
   0.46666667  0.33333333  0.00000000       0.007
  -0.46666667  0.33333333  0.00000000       0.007
  -0.40000000  0.33333333  0.00000000       0.007
  -0.33333333  0.33333333  0.00000000       0.004
   0.40000000  0.40000000  0.00000000       0.002
   0.46666667  0.40000000  0.00000000       0.007
[...]
  -0.46666667  0.33333333  0.13333333       0.014
  -0.40000000  0.33333333  0.13333333       0.014
  -0.33333333  0.33333333  0.13333333       0.014
  -0.26666667  0.33333333  0.13333333       0.014
  -0.20000000  0.33333333  0.13333333       0.007
  -0.46666667  0.40000000  0.13333333       0.007
  -0.40000000  0.40000000  0.13333333       0.014
  -0.33333333  0.40000000  0.13333333       0.014
  -0.26666667  0.40000000  0.13333333       0.007
  -0.40000000  0.46666667  0.13333333       0.007
  -0.33333333  0.46666667  0.13333333       0.007
  -0.40000000  0.40000000  0.20000000       0.007
  -0.33333333  0.40000000  0.20000000       0.014
  -0.33333333  0.46666667  0.20000000       0.007
  -0.26666667  0.46666667  0.20000000       0.007

 position of ions in fractional coordinates (direct lattice)
   0.00000000  0.00000000  0.00000000

 position of ions in cartesian coordinates  (Angst):
   0.00000000  0.00000000  0.00000000

 k-point  1 :   0.0000 0.0000 0.0000  plane waves:     137
 k-point  2 :   0.0667 0.0000 0.0000  plane waves:     128
 k-point  3 :   0.1333 0.0000 0.0000  plane waves:     128
 k-point  4 :   0.2000 0.0000 0.0000  plane waves:     129
 k-point  5 :   0.2667 0.0000 0.0000  plane waves:     132
 k-point  6 :   0.3333 0.0000 0.0000  plane waves:     126
 k-point  7 :   0.4000 0.0000 0.0000  plane waves:     123
 k-point  8 :   0.4667 0.0000 0.0000  plane waves:     120
 k-point  9 :   0.0667 0.0667 0.0000  plane waves:     125
 k-point 10 :   0.1333 0.0667 0.0000  plane waves:     127
 k-point 11 :   0.2000 0.0667 0.0000  plane waves:     127
 k-point 12 :   0.2667 0.0667 0.0000  plane waves:     131
 k-point 13 :   0.3333 0.0667 0.0000  plane waves:     129
 k-point 14 :   0.4000 0.0667 0.0000  plane waves:     125
 k-point 15 :   0.4667 0.0667 0.0000  plane waves:     125
 k-point 16 :  -0.4667 0.0667 0.0000  plane waves:     129
 k-point 17 :  -0.4000 0.0667 0.0000  plane waves:     126
 k-point 18 :  -0.3333 0.0667 0.0000  plane waves:     129
 k-point 19 :  -0.2667 0.0667 0.0000  plane waves:     133
 k-point 20 :  -0.2000 0.0667 0.0000  plane waves:     130
 k-point 21 :  -0.1333 0.0667 0.0000  plane waves:     125
 k-point 22 :  -0.0667 0.0667 0.0000  plane waves:     127
 k-point 23 :   0.1333 0.1333 0.0000  plane waves:     125
 k-point 24 :   0.2000 0.1333 0.0000  plane waves:     129
 k-point 25 :   0.2667 0.1333 0.0000  plane waves:     132
 k-point 26 :   0.3333 0.1333 0.0000  plane waves:     130
 k-point 27 :   0.4000 0.1333 0.0000  plane waves:     130
 k-point 28 :   0.4667 0.1333 0.0000  plane waves:     125
 k-point 29 :  -0.4667 0.1333 0.0000  plane waves:     125
 k-point 30 :  -0.4000 0.1333 0.0000  plane waves:     127
 k-point 31 :  -0.3333 0.1333 0.0000  plane waves:     128
 k-point 32 :  -0.2667 0.1333 0.0000  plane waves:     130
 k-point 33 :  -0.2000 0.1333 0.0000  plane waves:     131
 k-point 34 :  -0.1333 0.1333 0.0000  plane waves:     133
 k-point 35 :   0.2000 0.2000 0.0000  plane waves:     129
 k-point 36 :   0.2667 0.2000 0.0000  plane waves:     130
 k-point 37 :   0.3333 0.2000 0.0000  plane waves:     130
 k-point 38 :   0.4000 0.2000 0.0000  plane waves:     124
 k-point 39 :   0.4667 0.2000 0.0000  plane waves:     126
 k-point 40 :  -0.4667 0.2000 0.0000  plane waves:     125
 k-point 41 :  -0.4000 0.2000 0.0000  plane waves:     125
 k-point 42 :  -0.3333 0.2000 0.0000  plane waves:     127
 k-point 43 :  -0.2667 0.2000 0.0000  plane waves:     129
 k-point 44 :  -0.2000 0.2000 0.0000  plane waves:     131
 k-point 45 :   0.2667 0.2667 0.0000  plane waves:     129
 k-point 46 :   0.3333 0.2667 0.0000  plane waves:     128
 k-point 47 :   0.4000 0.2667 0.0000  plane waves:     126
 k-point 48 :   0.4667 0.2667 0.0000  plane waves:     124
 k-point 49 :  -0.4667 0.2667 0.0000  plane waves:     125
 k-point 50 :  -0.4000 0.2667 0.0000  plane waves:     123
 k-point 51 :  -0.3333 0.2667 0.0000  plane waves:     126
 k-point 52 :  -0.2667 0.2667 0.0000  plane waves:     126
 k-point 53 :   0.3333 0.3333 0.0000  plane waves:     129
 k-point 54 :   0.4000 0.3333 0.0000  plane waves:     127
 k-point 55 :   0.4667 0.3333 0.0000  plane waves:     122
 k-point 56 :  -0.4667 0.3333 0.0000  plane waves:     124
 k-point 57 :  -0.4000 0.3333 0.0000  plane waves:     122
 k-point 58 :  -0.3333 0.3333 0.0000  plane waves:     122
 k-point 59 :   0.4000 0.4000 0.0000  plane waves:     121
 k-point 60 :   0.4667 0.4000 0.0000  plane waves:     119
[...]
 k-point 85 :  -0.4000 0.2667 0.0667  plane waves:     122
 k-point 86 :  -0.3333 0.2667 0.0667  plane waves:     126
 k-point 87 :  -0.2667 0.2667 0.0667  plane waves:     127
 k-point 88 :  -0.2000 0.2667 0.0667  plane waves:     127
 k-point 89 :   0.4000 0.3333 0.0667  plane waves:     129
 k-point 90 :   0.4667 0.3333 0.0667  plane waves:     126
 k-point 91 :  -0.4667 0.3333 0.0667  plane waves:     126
 k-point 92 :  -0.4000 0.3333 0.0667  plane waves:     121
 k-point 93 :  -0.3333 0.3333 0.0667  plane waves:     121
 k-point 94 :  -0.2667 0.3333 0.0667  plane waves:     126
 k-point 95 :   0.4667 0.4000 0.0667  plane waves:     124
 k-point 96 :  -0.4667 0.4000 0.0667  plane waves:     125
 k-point 97 :  -0.4000 0.4000 0.0667  plane waves:     124
 k-point 98 :  -0.3333 0.4000 0.0667  plane waves:     121
 k-point 99 :  -0.4667 0.4667 0.0667  plane waves:     117
 k-point ** :  -0.4000 0.4667 0.0667  plane waves:     120
 k-point ** :   0.4000 0.2667 0.1333  plane waves:     127
 k-point ** :   0.4667 0.2667 0.1333  plane waves:     126
 k-point ** :  -0.4667 0.2667 0.1333  plane waves:     123
 k-point ** :  -0.4000 0.2667 0.1333  plane waves:     123
 k-point ** :   0.4667 0.3333 0.1333  plane waves:     126
 k-point ** :  -0.4667 0.3333 0.1333  plane waves:     124
 k-point ** :  -0.4000 0.3333 0.1333  plane waves:     119
 k-point ** :  -0.3333 0.3333 0.1333  plane waves:     120
 k-point ** :  -0.2667 0.3333 0.1333  plane waves:     123
 k-point ** :  -0.2000 0.3333 0.1333  plane waves:     125
 k-point ** :  -0.4667 0.4000 0.1333  plane waves:     125
 k-point ** :  -0.4000 0.4000 0.1333  plane waves:     123
 k-point ** :  -0.3333 0.4000 0.1333  plane waves:     122
 k-point ** :  -0.2667 0.4000 0.1333  plane waves:     123
 k-point ** :  -0.4000 0.4667 0.1333  plane waves:     122
 k-point ** :  -0.3333 0.4667 0.1333  plane waves:     122
 k-point ** :  -0.4000 0.4000 0.2000  plane waves:     123
 k-point ** :  -0.3333 0.4000 0.2000  plane waves:     118
 k-point ** :  -0.3333 0.4667 0.2000  plane waves:     116
 k-point ** :  -0.2667 0.4667 0.2000  plane waves:     116

 maximum and minimum number of plane-waves per node :       137      116

 maximum number of plane-waves:       137
 maximum index in each direction:
   IXMAX=    3   IYMAX=    3   IZMAX=    3
   IXMIN=   -3   IYMIN=   -3   IZMIN=   -3

 WARNING: aliasing errors must be expected set NGX to  14 to avoid them
 WARNING: aliasing errors must be expected set NGY to  14 to avoid them
 WARNING: aliasing errors must be expected set NGZ to  14 to avoid them
 aliasing errors are usually negligible using standard VASP settings
 and one can safely disregard these warnings

 serial   3D FFT for wavefunctions
 parallel 3D FFT for charge:
    minimum data exchange during FFTs selected (reduces bandwidth)

 Broyden mixing: mesh for mixing (old mesh)
   NGX =  7   NGY =  7   NGZ =  7
  (NGX  = 20   NGY  = 20   NGZ  = 20)
  gives a total of    343 points

 initial charge density was supplied:
 charge density of overlapping atoms calculated
 number of electron       4.0000000 magnetization
 keeping initial charge density in first step

 Maximum index for augmentation-charges          331 (set IRDMAX)

 First call to EWALD:  gamma=   0.721
 Maximum number of real-space cells 3x 3x 3
 Maximum number of reciprocal cells 3x 3x 3

 FEWALD executed in parallel

----------------------------------------- Iteration    1(   1)  ---------------------------------------

 eigenvalue-minimisations  :  5264
 total energy-change (2. order) :-0.4662323E+01  (-0.1176477E+03)
 number of electron       4.0000000 magnetization
 augmentation part        4.0000000 magnetization

 Free energy of the ion-electron system (eV)
  alpha Z        PSCENC =         2.26996938
  Ewald energy   TEWEN  =      -135.42777035
  -Hartree energ DENC   =        -0.65300110
  -exchange      EXHF   =         0.00000000
  -V(xc)+E(xc)   XCENC  =        -8.87078791
  PAW double counting   =        32.97760406      -15.38426339
  entropy T*S    EENTRO =        -0.00235120
  eigenvalues    EBANDS =        17.36750053
  atomic energy  EATOM  =       103.06077658
  Solvation  Ediel_sol  =         0.00000000
  free energy    TOTEN  =        -4.66232341 eV

  energy without entropy =       -4.65997221  energy(sigma->0) =       -4.66114781

[...]

 eigenvalue-minimisations  :  5200
 total energy-change (2. order) : 0.9078462E-09  (-0.2196610E-13)
 number of electron       4.0000010 magnetization
 augmentation part       -0.2416856 magnetization

 Broyden mixing:
  rms(total) = 0.77126E-01    rms(broyden)= 0.77112E-01
  rms(prec ) = 0.30663E+00
  weight for this iteration     100.00

[...]

 eigenvalues of (default mixing * dielectric matrix)
  average eigenvalue GAMMA=   2.4736
  2.4736

[...]

 eigenvalue-minimisations  :  4400
 total energy-change (2. order) : 0.1803776E-04  (-0.2010044E-05)
 number of electron       4.0000010 magnetization
 augmentation part       -0.2472808 magnetization

 Broyden mixing:
  rms(total) = 0.44354E-03    rms(broyden)= 0.44322E-03
  rms(prec ) = 0.15664E-02
  weight for this iteration     100.00

 eigenvalues of (default mixing * dielectric matrix)
  average eigenvalue GAMMA=   2.0003
  1.0104  2.6542  2.3364

[...]

----------------------------------------- Iteration    1(   9)  ---------------------------------------

 eigenvalue-minimisations  :  5600
 total energy-change (2. order) :-0.7745629E-06  (-0.2246907E-07)
 number of electron       4.0000010 magnetization
 augmentation part       -0.2472808 magnetization

 Free energy of the ion-electron system (eV)
  alpha Z        PSCENC =         2.26996938
  Ewald energy   TEWEN  =      -135.42777035
  -Hartree energ DENC   =        -0.48916008
  -exchange      EXHF   =         0.00000000
  -V(xc)+E(xc)   XCENC  =        -8.81703123
  PAW double counting   =        34.02115165      -16.43548729
  entropy T*S    EENTRO =        -0.00325478
  eigenvalues    EBANDS =        16.95723230
  atomic energy  EATOM  =       103.06077658
  Solvation  Ediel_sol  =         0.00000000
  free energy    TOTEN  =        -4.86357383 eV

  energy without entropy =       -4.86031905  energy(sigma->0) =       -4.86194644

 average (electrostatic) potential at core
  the test charge radii are     0.9892
  (the norm of the test charge is              1.0000)
       1 -80.2457

 E-fermi :   9.8480     XC(G=0): -11.0966     alpha+bet :-16.1732

 k-point     1 :       0.0000    0.0000    0.0000
  band No.  band energies     occupation
      1      -4.3786      2.00000
      2      20.6939      0.00000
      3      20.6941      0.00000
      4      20.6941      0.00000
      5      21.7705      0.00000
      6      21.7706      0.00000
      7      21.7706      0.00000
      8      26.9780      0.00000
      9      28.5750      0.00000
     10      28.5750      0.00000
     11      31.6948      0.00000
     12      34.8834      0.00000
     13      34.8834      0.00000
     14      34.8834      0.00000
     15      41.9994      0.00000
     16      62.8212      0.00000

[...]

 k-point   120 :      -0.2667    0.4667    0.2000
  band No.  band energies     occupation
      1       6.2103      2.00000
      2       6.6163      2.00000
      3       7.4061      2.00000
      4       9.1237      2.00000
      5      22.9401      0.00000
      6      24.7598      0.00000
      7      25.6792      0.00000
      8      27.4664      0.00000
      9      36.0554      0.00000
     10      41.5036      0.00000
     11      43.7197      0.00000
     12      44.4635      0.00000
     13      45.4439      0.00000
     14      46.5256      0.00000
     15      47.1750      0.00000
     16      50.0692      0.00000

 soft charge-density along one line, spin component           1
         0         1         2         3         4         5         6         7         8         9
 total charge-density along one line

------------------------ aborting loop because EDIFF is reached ----------------------------------------

  FORCE on cell =-STRESS in cart. coord.  units (eV):
  Direction    XX          YY          ZZ          XY          YZ          ZX
  Alpha Z     2.26997     2.26997     2.26997
  Ewald     -45.14259   -45.14259   -45.14259    -0.00000     0.00000    -0.00000
  Hartree     0.16306     0.16306     0.16306    -0.00000    -0.00000    -0.00000
  E(xc)     -12.63197   -12.63197   -12.63197    -0.00000    -0.00000    -0.00000
  Local      -5.26741    -5.26741    -5.26741     0.00003     0.00003     0.00004
  n-local    39.03919    37.13624    39.35010    -0.58657     0.57584     0.91747
  augment    -6.30227    -6.30227    -6.30227    -0.00005    -0.00005    -0.00005
  Kinetic    20.79726    39.37522    24.43701     9.85520    -8.46624   -16.24253
  Fock        0.00000     0.00000     0.00000     0.00000     0.00000     0.00000
  Total      -0.19955    -0.19955    -0.19955    -0.00000     0.00000    -0.00000
  in kB     -21.55884   -21.55884   -21.55884    -0.00000     0.00000    -0.00000

 VOLUME and BASIS-vectors are now :
  energy-cutoff  :      240.00
  volume of cell :       14.83
      direct lattice vectors                 reciprocal lattice vectors
     1.950000000  1.950000000  0.000000000     0.256410256  0.256410256 -0.256410256
     0.000000000  1.950000000  1.950000000    -0.256410256  0.256410256  0.256410256
     1.950000000  0.000000000  1.950000000     0.256410256 -0.256410256  0.256410256

  length of vectors
     2.757716447  2.757716447  2.757716447     0.444115592  0.444115592  0.444115592

 FORCES acting on ions
    electron-ion (+dipol)            ewald-force                    non-local-force                 convergence-correction
   0.198E-15 -.273E-15 0.102E-15   0.262E-15 0.141E-15 0.191E-15   0.000E+00 0.000E+00 0.000E+00   0.720E-16 0.391E-16 -.247E-16
   0.198E-15 -.273E-15 0.102E-15   0.262E-15 0.141E-15 0.191E-15   0.000E+00 0.000E+00 0.000E+00   0.720E-16 0.391E-16 -.247E-16

 POSITION                                       TOTAL-FORCE (eV/Angst)
      0.00000      0.00000      0.00000        -0.000000      0.000000      0.000000
    total drift:                                0.000000     -0.000000      0.000000

  FREE ENERGIE OF THE ION-ELECTRON SYSTEM (eV)
  free  energy   TOTEN  =        -4.86357383 eV

  energy  without entropy=       -4.86031905  energy(sigma->0) =       -4.86194644

 writing wavefunctions