 vasp.5.4.1 24Jun15 (build May 02 2016 14:41:14) complex

 executed on           IFC91_ompi date 2022.05.13  12:14:59

 INCAR:
 POTCAR:   PAW_PBE C 08Apr2002

 POTCAR:   PAW_PBE C 08Apr2002
   VRHFIN =C: s2p2

   TITEL  = PAW_PBE C 08Apr2002
   POMASS =   12.011; ZVAL   =    4.000    mass and valenz
   ENMAX  =  400.000; ENMIN  =  300.000 eV
   QCUT   =   -5.516; QGAM   =   11.032    optimization parameters

   Description
     l     E      TYP  RCUT    TYP  RCUT
     0   .000     23  1.200
     0   .000     23  1.200
     1   .000     23  1.500
     1  2.500     23  1.500
     2   .000      7  1.500

 PAW_PBE C 08Apr2002                    :

 POSCAR: Diamond
  positions in direct lattice
 exchange correlation table for  LEXCH =        8
   RHO(1)=    0.500       N(1)  =     2000
   RHO(2)=  100.500       N(2)  =     4000

 ion  position               nearest neighbor table
   1  0.000  0.000  0.000-   2 1.54   2 1.54   2 1.54   2 1.54
   2  0.250  0.250  0.250-   1 1.54   1 1.54   1 1.54   1 1.54

  LATTYP: Found a face centered cubic cell.
 ALAT       =     3.5670000000

  Lattice vectors:

 A1 = (   1.7835000000,   1.7835000000,   0.0000000000)
 A2 = (   0.0000000000,   1.7835000000,   1.7835000000)
 A3 = (   1.7835000000,   0.0000000000,   1.7835000000)

Analysis of symmetry for initial positions (statically):
 Subroutine PRICEL returns:
 Original cell was already a primitive cell.

 Routine SETGRP: Setting up the symmetry group for a
 face centered cubic supercell.

 Subroutine GETGRP returns: Found 48 space group operations
 (whereof 24 operations were pure point group operations)
 out of a pool of 48 trial point group operations.

The static configuration has the point symmetry T_d .
 The point group associated with its full space group is O_h .

Analysis of symmetry for dynamics (positions and initial velocities):
 Subroutine PRICEL returns:
 Original cell was already a primitive cell.

 Routine SETGRP: Setting up the symmetry group for a
 face centered cubic supercell.

 Subroutine GETGRP returns: Found 48 space group operations
 (whereof 24 operations were pure point group operations)
 out of a pool of 48 trial point group operations.

The dynamic configuration has the point symmetry T_d .
 The point group associated with its full space group is O_h .

 KPOINTS: kpoints for bandstructure GAMMA-X-U|K-GA
  interpolating k-points between supplied coordinates
  k-points in reciprocal lattice
Space group operators:
 irot       det(A)        alpha          n_x          n_y          n_z        tau_x        tau_y        tau_z
    1     1.000000     0.000000     1.000000     0.000000     0.000000     0.000000     0.000000     0.000000
    2     1.000000   120.000000    -0.577350    -0.577350    -0.577350     0.000000     0.000000     0.000000
    3     1.000000   120.000000     0.577350     0.577350     0.577350     0.000000     0.000000     0.000000
    4    -1.000000    90.000000     0.000000    -1.000000     0.000000     0.000000     0.000000     0.000000
    5    -1.000000   180.000000     0.707107     0.707107     0.000000     0.000000     0.000000     0.000000
    6    -1.000000    90.000000     1.000000     0.000000     0.000000     0.000000     0.000000     0.000000
    7     1.000000   180.000000     0.000000     1.000000     0.000000     0.000000     0.000000     0.000000
    8     1.000000   120.000000     0.577350     0.577350    -0.577350     0.000000     0.000000     0.000000
    9     1.000000   120.000000     0.577350    -0.577350    -0.577350     0.000000     0.000000     0.000000
   10    -1.000000    90.000000     0.000000     1.000000     0.000000     0.000000     0.000000     0.000000
   11    -1.000000    90.000000     0.000000     0.000000    -1.000000     0.000000     0.000000     0.000000
   12    -1.000000   180.000000     0.000000     0.707107     0.707107     0.000000     0.000000     0.000000
   13     1.000000   120.000000    -0.577350     0.577350     0.577350     0.000000     0.000000     0.000000
   14     1.000000   120.000000    -0.577350     0.577350    -0.577350     0.000000     0.000000     0.000000
   15     1.000000   180.000000     0.000000     0.000000     1.000000     0.000000     0.000000     0.000000
   16    -1.000000    90.000000    -1.000000     0.000000     0.000000     0.000000     0.000000     0.000000
   17    -1.000000   180.000000     0.707107     0.000000     0.707107     0.000000     0.000000     0.000000
   18    -1.000000    90.000000     0.000000     0.000000     1.000000     0.000000     0.000000     0.000000
   19     1.000000   120.000000    -0.577350    -0.577350     0.577350     0.000000     0.000000     0.000000
   20     1.000000   180.000000     1.000000     0.000000     0.000000     0.000000     0.000000     0.000000
   21     1.000000   120.000000     0.577350    -0.577350     0.577350     0.000000     0.000000     0.000000
   22    -1.000000   180.000000     0.707107    -0.707107     0.000000     0.000000     0.000000     0.000000
   23    -1.000000   180.000000     0.707107     0.000000    -0.707107     0.000000     0.000000     0.000000
   24    -1.000000   180.000000     0.000000    -0.707107     0.707107     0.000000     0.000000     0.000000
   25    -1.000000     0.000000     1.000000     0.000000     0.000000     0.250000     0.250000     0.250000
   26    -1.000000   120.000000    -0.577350    -0.577350    -0.577350     0.250000     0.250000     0.250000
   27    -1.000000   120.000000     0.577350     0.577350     0.577350     0.250000     0.250000     0.250000
   28     1.000000    90.000000     0.000000    -1.000000     0.000000     0.250000     0.250000     0.250000
   29     1.000000   180.000000     0.707107     0.707107     0.000000     0.250000     0.250000     0.250000
   30     1.000000    90.000000     1.000000     0.000000     0.000000     0.250000     0.250000     0.250000
   31    -1.000000   180.000000     0.000000     1.000000     0.000000     0.250000     0.250000     0.250000
   32    -1.000000   120.000000     0.577350     0.577350    -0.577350     0.250000     0.250000     0.250000
   33    -1.000000   120.000000     0.577350    -0.577350    -0.577350     0.250000     0.250000     0.250000
   34     1.000000    90.000000     0.000000     1.000000     0.000000     0.250000     0.250000     0.250000
   35     1.000000    90.000000     0.000000     0.000000    -1.000000     0.250000     0.250000     0.250000
   36     1.000000   180.000000     0.000000     0.707107     0.707107     0.250000     0.250000     0.250000
   37    -1.000000   120.000000    -0.577350     0.577350     0.577350     0.250000     0.250000     0.250000
   38    -1.000000   120.000000    -0.577350     0.577350    -0.577350     0.250000     0.250000     0.250000
   39    -1.000000   180.000000     0.000000     0.000000     1.000000     0.250000     0.250000     0.250000
   40     1.000000    90.000000    -1.000000     0.000000     0.000000     0.250000     0.250000     0.250000
   41     1.000000   180.000000     0.707107     0.000000     0.707107     0.250000     0.250000     0.250000
   42     1.000000    90.000000     0.000000     0.000000     1.000000     0.250000     0.250000     0.250000
   43    -1.000000   120.000000    -0.577350    -0.577350     0.577350     0.250000     0.250000     0.250000
   44    -1.000000   180.000000     1.000000     0.000000     0.000000     0.250000     0.250000     0.250000
   45    -1.000000   120.000000     0.577350    -0.577350     0.577350     0.250000     0.250000     0.250000
   46     1.000000   180.000000     0.707107    -0.707107     0.000000     0.250000     0.250000     0.250000
   47     1.000000   180.000000     0.707107     0.000000    -0.707107     0.250000     0.250000     0.250000
   48     1.000000   180.000000     0.000000    -0.707107     0.707107     0.250000     0.250000     0.250000

 I would recommend the setting:
   dimension x,y,z NGX =    14 NGY =   14 NGZ =   14
 SYSTEM =  Diamond
 POSCAR =  Diamond

 Startparameter for this run:
   NWRITE =      2    write-flag & timer
   PREC   = normal    normal or accurate (medium, high low for compatibility)
   ISTART =      0    job   : 0-new  1-cont  2-samecut
   ICHARG =      2    charge: 1-file 2-atom 10-const
   ISPIN  =      1    spin polarized calculation?
   LNONCOLLINEAR =      F non collinear calculations
   LSORBIT =      F    spin-orbit coupling
   INIWAV =      1    electr: 0-lowe 1-rand  2-diag
   LASPH  =      F    aspherical Exc in radial PAW
   METAGGA=      F    non-selfconsistent MetaGGA calc.

 Electronic Relaxation 1
   ENCUT  =  500.0 eV  36.75 Ry    6.06 a.u.   4.60  4.60  4.60*2*pi/ulx,y,z
   ENINI  =  500.0     initial cutoff
   ENAUG  =  644.9 eV  augmentation charge cutoff
   NELM   =    100;   NELMIN=  4; NELMDL= -5     # of ELM steps
   EDIFF  = 0.1E-05   stopping-criterion for ELM
   LREAL  =      F    real-space projection
   NLSPLINE    = F    spline interpolate recip. space projectors
   LCOMPAT=      F    compatible to vasp.4.4
   GGA_COMPAT  = T    GGA compatible to vasp.4.4-vasp.4.6
   LMAXPAW     = -100 max onsite density
   LMAXMIX     =    2 max onsite mixed and CHGCAR
   VOSKOWN=      0    Vosko Wilk Nusair interpolation
   ROPT   =    0.00000
 Ionic relaxation
   EDIFFG = -.1E-04   stopping-criterion for IOM
   NSW    =     20    number of steps for IOM
   NBLOCK =      1;   KBLOCK =     20    inner block; outer block
   IBRION =      2    ionic relax: 0-MD 1-quasi-New 2-CG
   NFREE  =      1    steps in history (QN), initial steepest desc. (CG)
   ISIF   =      3    stress and relaxation
   IWAVPR =     11    prediction:  0-non 1-charg 2-wave 3-comb
   ISYM   =      2    0-nonsym 1-usesym 2-fastsym
   LCORR  =      T    Harris-Foulkes like correction to forces

   POTIM  = 0.5000    time-step for ionic-motion
   TEIN   =    0.0    initial temperature
   TEBEG  =    0.0;   TEEND  =   0.0 temperature during run
   SMASS  =  -3.00    Nose mass-parameter (am)
   estimated Nose-frequenzy (Omega)   =  0.10E-29 period in steps =****** mass=  -0.145E-27a.u.
   SCALEE = 1.0000    scale energy and forces
   NPACO  =    256;   APACO  = 16.0  distance and # of slots for P.C.
   PSTRESS=    0.0 pullay stress

  Mass of Ions in am
   POMASS =  12.01
  Ionic Valenz
   ZVAL   =   4.00
  Atomic Wigner-Seitz radii
  virtual crystal weights
   VCA    =   1.00
   NELECT =       8.0000    total number of electrons
   NUPDOWN=      -1.0000    fix difference up-down

 DOS related values:
   EMIN   =  10.00;   EMAX   =-10.00  energy-range for DOS
   EFERMI =   0.00
   ISMEAR =     0;   SIGMA  =   0.10  broadening in eV -4-tet -1-fermi 0-gaus

 Electronic relaxation 2 (details)
   IALGO  =     38    algorithm
   LDIAG  =      T    sub-space diagonalisation (order eigenvalues)
   LSUBROT=      F    optimize rotation matrix (better conditioning)
   TURBO    =      0    0=normal 1=particle mesh
   IRESTART =      0    0=no restart 2=restart with 2 vectors
   NREBOOT  =      0    no. of reboots
   NMIN     =      0    reboot dimension
   EREF     =   0.00    reference energy to select bands
   IMIX   =      4    mixing-type and parameters
     AMIX     =   0.40;   BMIX     =  1.00
[...]
 k-point ** :   0.5164 0.0328 0.5164  plane waves:     298
 k-point ** :   0.5177 0.0354 0.5177  plane waves:     298
 k-point ** :   0.5189 0.0379 0.5189  plane waves:     294
 k-point ** :   0.5202 0.0404 0.5202  plane waves:     294
 k-point ** :   0.5215 0.0429 0.5215  plane waves:     294
 k-point ** :   0.5227 0.0455 0.5227  plane waves:     294
 k-point ** :   0.5240 0.0480 0.5240  plane waves:     294
 k-point ** :   0.5253 0.0505 0.5253  plane waves:     294
 k-point ** :   0.5265 0.0530 0.5265  plane waves:     294
 k-point ** :   0.5278 0.0556 0.5278  plane waves:     294
 k-point ** :   0.5290 0.0581 0.5290  plane waves:     294
 k-point ** :   0.5303 0.0606 0.5303  plane waves:     294
 k-point ** :   0.5316 0.0631 0.5316  plane waves:     294
 k-point ** :   0.5328 0.0657 0.5328  plane waves:     294
 k-point ** :   0.5341 0.0682 0.5341  plane waves:     294
 k-point ** :   0.5354 0.0707 0.5354  plane waves:     294
 k-point ** :   0.5366 0.0732 0.5366  plane waves:     294
 k-point ** :   0.5379 0.0758 0.5379  plane waves:     294
 k-point ** :   0.5391 0.0783 0.5391  plane waves:     294
 k-point ** :   0.5404 0.0808 0.5404  plane waves:     288
 k-point ** :   0.5417 0.0833 0.5417  plane waves:     288
 k-point ** :   0.5429 0.0859 0.5429  plane waves:     288
 k-point ** :   0.5442 0.0884 0.5442  plane waves:     288
 k-point ** :   0.5455 0.0909 0.5455  plane waves:     288
 k-point ** :   0.5467 0.0934 0.5467  plane waves:     288
 k-point ** :   0.5480 0.0960 0.5480  plane waves:     288
 k-point ** :   0.5492 0.0985 0.5492  plane waves:     288
 k-point ** :   0.5505 0.1010 0.5505  plane waves:     288
 k-point ** :   0.5518 0.1035 0.5518  plane waves:     288
 k-point ** :   0.5530 0.1061 0.5530  plane waves:     288
 k-point ** :   0.5543 0.1086 0.5543  plane waves:     288
 k-point ** :   0.5556 0.1111 0.5556  plane waves:     288
 k-point ** :   0.5568 0.1136 0.5568  plane waves:     288
 k-point ** :   0.5581 0.1162 0.5581  plane waves:     288
 k-point ** :   0.5593 0.1187 0.5593  plane waves:     288
 k-point ** :   0.5606 0.1212 0.5606  plane waves:     288
 k-point ** :   0.5619 0.1237 0.5619  plane waves:     288
 k-point ** :   0.5631 0.1263 0.5631  plane waves:     288
 k-point ** :   0.5644 0.1288 0.5644  plane waves:     288
 k-point ** :   0.5657 0.1313 0.5657  plane waves:     288
 k-point ** :   0.5669 0.1338 0.5669  plane waves:     288
 k-point ** :   0.5682 0.1364 0.5682  plane waves:     288
 k-point ** :   0.5694 0.1389 0.5694  plane waves:     288
 k-point ** :   0.5707 0.1414 0.5707  plane waves:     288
 k-point ** :   0.5720 0.1439 0.5720  plane waves:     288
 k-point ** :   0.5732 0.1465 0.5732  plane waves:     288
[...]
 k-point ** :   0.5000 0.0354 0.5354  plane waves:     298
 k-point ** :   0.5000 0.0328 0.5328  plane waves:     298
 k-point ** :   0.5000 0.0303 0.5303  plane waves:     298
 k-point ** :   0.5000 0.0278 0.5278  plane waves:     298
 k-point ** :   0.5000 0.0253 0.5253  plane waves:     298
 k-point ** :   0.5000 0.0227 0.5227  plane waves:     298
 k-point ** :   0.5000 0.0202 0.5202  plane waves:     298
 k-point ** :   0.5000 0.0177 0.5177  plane waves:     298
 k-point ** :   0.5000 0.0152 0.5152  plane waves:     298
 k-point ** :   0.5000 0.0126 0.5126  plane waves:     302
 k-point ** :   0.5000 0.0101 0.5101  plane waves:     302
 k-point ** :   0.5000 0.0076 0.5076  plane waves:     302
 k-point ** :   0.5000 0.0051 0.5051  plane waves:     302
 k-point ** :   0.5000 0.0025 0.5025  plane waves:     302
 k-point ** :   0.5000 0.0000 0.5000  plane waves:     302

 maximum and minimum number of plane-waves per node :       303      272

 maximum number of plane-waves:       303
 maximum index in each direction:
   IXMAX=    4   IYMAX=    4   IZMAX=    4
   IXMIN=   -5   IYMIN=   -5   IZMIN=   -5

 WARNING: aliasing errors must be expected set NGX to  20 to avoid them
 WARNING: aliasing errors must be expected set NGY to  20 to avoid them
 WARNING: aliasing errors must be expected set NGZ to  20 to avoid them
 aliasing errors are usually negligible using standard VASP settings
 and one can safely disregard these warnings

 serial   3D FFT for wavefunctions
 parallel 3D FFT for charge:
    minimum data exchange during FFTs selected (reduces bandwidth)

 Broyden mixing: mesh for mixing (old mesh)
   NGX =  9   NGY =  9   NGZ =  9
  (NGX  = 28   NGY  = 28   NGZ  = 28)
  gives a total of    729 points

 initial charge density was supplied:
 charge density of overlapping atoms calculated
 number of electron       8.0000000 magnetization
 keeping initial charge density in first step

 Maximum index for augmentation-charges          211 (set IRDMAX)

 First call to EWALD:  gamma=   0.789
 Maximum number of real-space cells 3x 3x 3
 Maximum number of reciprocal cells 3x 3x 3

 FEWALD executed in parallel

----------------------------------------- Iteration    1(   1)  ---------------------------------------

 eigenvalue-minimisations  : 20960
 total energy-change (2. order) :-0.1102769E+02  (-0.5085620E+03)
 number of electron       8.0000000 magnetization
 augmentation part        8.0000000 magnetization

 Free energy of the ion-electron system (eV)
  alpha Z        PSCENC =        28.72516613
  Ewald energy   TEWEN  =      -347.93942819
  -Hartree energ DENC   =       -17.61817783
  -exchange      EXHF   =         0.00000000
  -V(xc)+E(xc)   XCENC  =        28.59487881
  PAW double counting   =        75.66288619      -77.96384553
  entropy T*S    EENTRO =        -0.00000032
  eigenvalues    EBANDS =         5.21399064
  atomic energy  EATOM  =       294.29684335
  Solvation  Ediel_sol  =         0.00000000
  free energy    TOTEN  =       -11.02768676 eV

  energy without entropy =      -11.02768644  energy(sigma->0) =      -11.02768660

[...]

 Broyden mixing:
  rms(total) = 0.53244E+00    rms(broyden)= 0.53235E+00
  rms(prec ) = 0.20478E+01
  weight for this iteration     100.00

[...]

 eigenvalue-minimisations  : 21696
 total energy-change (2. order) : 0.6153194E+00  (-0.4588226E-01)
 number of electron       8.0000000 magnetization
 augmentation part        0.2207927 magnetization

[...]

 eigenvalues of (default mixing * dielectric matrix)
  average eigenvalue GAMMA=   2.1573
  2.1573

[...]

 average (electrostatic) potential at core
  the test charge radii are     0.6991
  (the norm of the test charge is              1.0000)
       1 -45.0036       2 -45.0036

 E-fermi :  10.4485     XC(G=0): -13.1595     alpha+bet :-17.6958

 k-point     1 :       0.0000    0.0000    0.0000
  band No.  band energies     occupation
      1     -11.6061      2.00000
      2       9.9490      2.00000
      3       9.9491      2.00000
      4       9.9491      2.00000
      5      15.4931      0.00000
      6      15.4932      0.00000
      7      15.4932      0.00000
      8      23.2731      0.00000
      9      29.1141      0.00000
     10      36.3454      0.00000
     11      36.3454      0.00000
     12      37.2982      0.00000
     13      37.2982      0.00000
     14      37.2982      0.00000
     15      44.5963      0.00000
     16      57.1134      0.00000

[...]

 soft charge-density along one line, spin component           1
         0         1         2         3         4         5         6         7         8         9
 total charge-density along one line

------------------------ aborting loop because EDIFF is reached ----------------------------------------

  FORCE on cell =-STRESS in cart. coord.  units (eV):
  Direction    XX          YY          ZZ          XY          YZ          ZX
  Alpha Z    28.72517    28.72517    28.72517
  Ewald    -115.97986  -115.97986  -115.97986    -0.00000     0.00000     0.00000
  Hartree     9.21485     9.21485     9.21485    -0.00000    -0.00000    -0.00000
  E(xc)     -30.08418   -30.08418   -30.08418     0.00000     0.00000     0.00000
  Local     -11.30480   -11.30480   -11.30480     0.00004     0.00004     0.00004
  n-local   -10.05863    -9.37808    -8.96003     0.09777     0.22166     0.22558
  augment    -0.82635    -0.82635    -0.82635    -0.00003    -0.00003    -0.00003
  Kinetic   131.27330   133.97350   129.99887    -1.61228    -2.51210    -1.99390
  Fock        0.00000     0.00000     0.00000     0.00000     0.00000     0.00000
  Total       2.02781     2.02781     2.02781    -0.00000    -0.00000     0.00000
  in kB     286.34402   286.34402   286.34402    -0.00000    -0.00000     0.00000

 VOLUME and BASIS-vectors are now :
  energy-cutoff  :      500.00
  volume of cell :       11.35
      direct lattice vectors                 reciprocal lattice vectors
     1.783500000  1.783500000  0.000000000     0.280347631  0.280347631 -0.280347631
     0.000000000  1.783500000  1.783500000    -0.280347631  0.280347631  0.280347631
     1.783500000  0.000000000  1.783500000     0.280347631 -0.280347631  0.280347631

[...]

 FORCES acting on ions
    electron-ion (+dipol)            ewald-force                    non-local-force                 convergence-correction
   0.266E-05 0.103E-05 0.266E-05   0.515E-15 0.446E-14 -.268E-14   0.971E-16 0.127E-15 0.694E-16   0.854E-08 0.854E-08 0.854E-08
   -.266E-05 -.103E-05 -.266E-05   -.103E-14 -.598E-14 0.246E-14   -.867E-16 -.118E-15 -.590E-16   -.854E-08 -.854E-08 -.854E-08
   -.890E-13 -.464E-13 -.890E-13   -.515E-15 -.152E-14 -.216E-15   0.104E-16 0.867E-17 0.104E-16   0.145E-13 -.132E-14 0.897E-14

 POSITION                                       TOTAL-FORCE (eV/Angst)
      0.00000      0.00000      0.00000         0.000000      0.000000      0.000000
      0.89175      0.89175      0.89175        -0.000000     -0.000000     -0.000000
    total drift:                               -0.000000     -0.000000     -0.000000

  FREE ENERGIE OF THE ION-ELECTRON SYSTEM (eV)
  free  energy   TOTEN  =       -15.62579493 eV

  energy  without entropy=      -15.62579493  energy(sigma->0) =      -15.62579493

[...]

 d Force = 0.0000000E+00[ 0.000E+00, 0.000E+00]  d Energy =-0.2174801E-01 0.217E-01
 d Force = 0.0000000E+00[ 0.000E+00, 0.000E+00]  d Ewald  =-0.1622528E+02 0.162E+02

 Steepest descent step on ions:
 trial-energy change:    0.021748  1 .order    0.010885   -0.297561    0.319331
  (g-gl).g = 0.298E+00      g.g   = 0.298E+00  gl.gl    = 0.000E+00
 g(Force)  = 0.772E-44   g(Stress)= 0.298E+00 ortho     = 0.000E+00
 gamma     =   0.00000
 trial     =   1.00000
 opt step  =   0.45614  (harmonic =   0.48236) maximal distance =0.00000000
 next E    =   -15.692629   (d E  =  -0.06683)

[...]

 d Force = 0.0000000E+00[ 0.000E+00, 0.000E+00]  d Energy = 0.8671306E-01-0.867E-01
 d Force = 0.0000000E+00[ 0.000E+00, 0.000E+00]  d Ewald  = 0.8631624E+01-0.863E+01

[...]

 Broyden mixing:
  rms(total) = 0.38523E-04    rms(broyden)= 0.38432E-04
  rms(prec ) = 0.13657E-03
  weight for this iteration     100.00

[...]

 Broyden mixing:
  rms(total) = 0.36490E-05    rms(broyden)= 0.25787E-05
  rms(prec ) = 0.63043E-05
  weight for this iteration     100.00
  WARNING: grid for Broyden might be to small

[...]

 FEWALD executed in parallel

[...]

 eigenvalue-minimisations  : 11104
 total energy-change (2. order) :-0.3282139E-09  (-0.8538607E-12)
 number of electron       8.0000006 magnetization
 augmentation part        0.2035246 magnetization

[...]

 eigenvalue-minimisations  : 11184
 total energy-change (2. order) : 0.5712764E-10  (-0.4955956E-12)
 number of electron       8.0000006 magnetization
 augmentation part        0.2035246 magnetization

 Broyden mixing:
  rms(total) = 0.25818E-05    rms(broyden)= 0.60776E-07
  rms(prec ) = 0.14685E-06
  weight for this iteration     100.00
  WARNING: grid for Broyden might be to small

 eigenvalues of (default mixing * dielectric matrix)
  average eigenvalue GAMMA=   1.7546
  1.3398  2.1694

[...]

----------------------------------------- Iteration    6(   4)  ---------------------------------------

 eigenvalue-minimisations  : 10608
 total energy-change (2. order) :-0.1676881E-10  ( 0.1310426E-13)
 number of electron       8.0000006 magnetization
 augmentation part        0.2035246 magnetization

 Free energy of the ion-electron system (eV)
  alpha Z        PSCENC =        26.91360492
  Ewald energy   TEWEN  =      -340.46574252
  -Hartree energ DENC   =       -28.58604219
  -exchange      EXHF   =         0.00000000
  -V(xc)+E(xc)   XCENC  =        29.08287507
  PAW double counting   =       125.64100290     -128.21041065
  entropy T*S    EENTRO =        -0.00000000
  eigenvalues    EBANDS =         5.63709310
  atomic energy  EATOM  =       294.29684335
  Solvation  Ediel_sol  =         0.00000000
  free energy    TOTEN  =       -15.69077604 eV

  energy without entropy =      -15.69077604  energy(sigma->0) =      -15.69077604

 average (electrostatic) potential at core
  the test charge radii are     0.6991
  (the norm of the test charge is              1.0000)
       1 -45.9410       2 -45.9410

 E-fermi :   9.5167     XC(G=0): -12.8339     alpha+bet :-16.5798

[...]

 k-point   600 :       0.5000    0.0000    0.5000
  band No.  band energies     occupation
      1      -3.3397      2.00000
      2      -3.3397      2.00000
      3       3.0733      2.00000
      4       3.0733      2.00000
      5      13.5461      0.00000
      6      13.5461      0.00000
      7      24.8902      0.00000
      8      24.8905      0.00000
      9      31.0683      0.00000
     10      31.0683      0.00000
     11      40.2071      0.00000
     12      40.2072      0.00000
     13      45.9081      0.00000
     14      45.9081      0.00000
     15      55.6007      0.00000
     16      55.6008      0.00000

 soft charge-density along one line, spin component           1
         0         1         2         3         4         5         6         7         8         9
 total charge-density along one line

------------------------ aborting loop because EDIFF is reached ----------------------------------------

  FORCE on cell =-STRESS in cart. coord.  units (eV):
  Direction    XX          YY          ZZ          XY          YZ          ZX
  Alpha Z    26.91360    26.91360    26.91360
  Ewald    -113.48863  -113.48863  -113.48863     0.00000     0.00000     0.00000
  Hartree     9.52868     9.52868     9.52868    -0.00000    -0.00000    -0.00000
  E(xc)     -29.64629   -29.64629   -29.64629     0.00000     0.00000     0.00000
  Local     -12.46613   -12.46613   -12.46613     0.00005     0.00005     0.00005
  n-local    -9.12444    -8.70853    -8.40494     0.12447     0.26372     0.28157
  augment    -0.76009    -0.76009    -0.76009    -0.00003    -0.00003    -0.00003
  Kinetic   127.58751   130.92652   127.48042    -1.59194    -2.50868    -2.03930
  Fock        0.00000     0.00000     0.00000     0.00000     0.00000     0.00000
  Total      -0.00000    -0.00000    -0.00000     0.00000    -0.00000     0.00000
  in kB      -0.00037    -0.00037    -0.00037     0.00000    -0.00000     0.00000

 VOLUME and BASIS-vectors are now :
  energy-cutoff  :      500.00
  volume of cell :       12.11
      direct lattice vectors                 reciprocal lattice vectors
     1.822650248  1.822650248  0.000000000     0.274325807  0.274325807 -0.274325807
     0.000000000  1.822650248  1.822650248    -0.274325807  0.274325807  0.274325807
     1.822650248 -0.000000000  1.822650248     0.274325807 -0.274325807  0.274325807

  length of vectors
     2.577616701  2.577616701  2.577616701     0.475146235  0.475146235  0.475146235

 FORCES acting on ions
    electron-ion (+dipol)            ewald-force                    non-local-force                 convergence-correction
   0.378E-05 0.261E-05 0.378E-05   0.758E-14 0.583E-14 0.294E-14   0.139E-16 -.277E-16 -.208E-16   0.969E-11 0.969E-11 0.970E-11
   -.378E-05 -.261E-05 -.378E-05   -.757E-14 -.566E-14 -.300E-14   -.416E-16 0.260E-16 0.555E-16   -.969E-11 -.970E-11 -.969E-11
   -.396E-13 -.462E-13 -.396E-13   0.125E-16 0.172E-15 -.583E-16   -.278E-16 -.173E-17 0.347E-16   -.822E-15 -.325E-14 0.309E-14

 POSITION                                       TOTAL-FORCE (eV/Angst)
      0.00000      0.00000      0.00000        -0.000000     -0.000000     -0.000000
      0.91133      0.91133      0.91133         0.000000      0.000000      0.000000
    total drift:                               -0.000000     -0.000000     -0.000000

  FREE ENERGIE OF THE ION-ELECTRON SYSTEM (eV)
  free  energy   TOTEN  =       -15.69077604 eV

  energy  without entropy=      -15.69077604  energy(sigma->0) =      -15.69077604

 d Force = 0.0000000E+00[ 0.000E+00, 0.000E+00]  d Energy = 0.4479261E-10-0.448E-10
 d Force = 0.0000000E+00[ 0.000E+00, 0.000E+00]  d Ewald  = 0.1530759E-03-0.153E-03

 reached required accuracy - stopping structural energy minimisation
 writing wavefunctions