 vasp.5.4.1 24Jun15 (build May 02 2016 14:41:14) complex

 executed on           IFC91_ompi date 2022.05.07  12:49:32

 INCAR:
 POTCAR:   PAW_PBE Si 05Jan2001

 POTCAR:   PAW_PBE Si 05Jan2001
   VRHFIN =Si: s2p2

   TITEL  = PAW_PBE Si 05Jan2001
   POMASS =   28.085; ZVAL   =    4.000    mass and valenz
   ENMAX  =  245.345; ENMIN  =  184.009 eV
   QCUT   =   -4.246; QGAM   =    8.493    optimization parameters

   Description
     l     E      TYP  RCUT    TYP  RCUT
     0   .000     23  1.900
     0   .000     23  1.900
     1   .000     23  1.900
     1   .000     23  1.900
     2   .000      7  1.900

 PAW_PBE Si 05Jan2001                   :

 POSCAR: FCC Silicon
  positions in cartesian coordinates
 exchange correlation table for  LEXCH =        8
   RHO(1)=    0.500       N(1)  =     2000
   RHO(2)=  100.500       N(2)  =     4000

 ion  position               nearest neighbor table
   1  0.000  0.000  0.000-

  LATTYP: Found a face centered cubic cell.
 ALAT       =     3.9000000000

  Lattice vectors:

 A1 = (   1.9500000000,   1.9500000000,   0.0000000000)
 A2 = (   0.0000000000,   1.9500000000,   1.9500000000)
 A3 = (   1.9500000000,   0.0000000000,   1.9500000000)

Analysis of symmetry for initial positions (statically):
 Subroutine PRICEL returns:
 Original cell was already a primitive cell.

 Routine SETGRP: Setting up the symmetry group for a
 face centered cubic supercell.

 Subroutine GETGRP returns: Found 48 space group operations
 (whereof 48 operations were pure point group operations)
 out of a pool of 48 trial point group operations.

The static configuration has the point symmetry O_h .

Analysis of symmetry for dynamics (positions and initial velocities):
 Subroutine PRICEL returns:
 Original cell was already a primitive cell.

 Routine SETGRP: Setting up the symmetry group for a
 face centered cubic supercell.

 Subroutine GETGRP returns: Found 48 space group operations
 (whereof 48 operations were pure point group operations)
 out of a pool of 48 trial point group operations.

The dynamic configuration has the point symmetry O_h .

 KPOINTS: kpoints for bandstructure GAMMA-X-U|K-GA
  interpolating k-points between supplied coordinates
  k-points in reciprocal lattice
Space group operators:
 irot       det(A)        alpha          n_x          n_y          n_z        tau_x        tau_y        tau_z
    1     1.000000     0.000000     1.000000     0.000000     0.000000     0.000000     0.000000     0.000000
    2    -1.000000     0.000000     1.000000     0.000000     0.000000     0.000000     0.000000     0.000000
    3     1.000000   120.000000    -0.577350    -0.577350    -0.577350     0.000000     0.000000     0.000000
    4    -1.000000   120.000000    -0.577350    -0.577350    -0.577350     0.000000     0.000000     0.000000
    5     1.000000   120.000000     0.577350     0.577350     0.577350     0.000000     0.000000     0.000000
    6    -1.000000   120.000000     0.577350     0.577350     0.577350     0.000000     0.000000     0.000000
    7     1.000000    90.000000     0.000000    -1.000000     0.000000     0.000000     0.000000     0.000000
    8    -1.000000    90.000000     0.000000    -1.000000     0.000000     0.000000     0.000000     0.000000
    9     1.000000   180.000000     0.707107     0.707107     0.000000     0.000000     0.000000     0.000000
   10    -1.000000   180.000000     0.707107     0.707107     0.000000     0.000000     0.000000     0.000000
   11     1.000000    90.000000     1.000000     0.000000     0.000000     0.000000     0.000000     0.000000
   12    -1.000000    90.000000     1.000000     0.000000     0.000000     0.000000     0.000000     0.000000
   13     1.000000   180.000000     0.000000     1.000000     0.000000     0.000000     0.000000     0.000000
   14    -1.000000   180.000000     0.000000     1.000000     0.000000     0.000000     0.000000     0.000000
   15     1.000000   120.000000     0.577350     0.577350    -0.577350     0.000000     0.000000     0.000000
   16    -1.000000   120.000000     0.577350     0.577350    -0.577350     0.000000     0.000000     0.000000
   17     1.000000   120.000000     0.577350    -0.577350    -0.577350     0.000000     0.000000     0.000000
   18    -1.000000   120.000000     0.577350    -0.577350    -0.577350     0.000000     0.000000     0.000000
   19     1.000000    90.000000     0.000000     1.000000     0.000000     0.000000     0.000000     0.000000
   20    -1.000000    90.000000     0.000000     1.000000     0.000000     0.000000     0.000000     0.000000
   21     1.000000    90.000000     0.000000     0.000000    -1.000000     0.000000     0.000000     0.000000
   22    -1.000000    90.000000     0.000000     0.000000    -1.000000     0.000000     0.000000     0.000000
   23     1.000000   180.000000     0.000000     0.707107     0.707107     0.000000     0.000000     0.000000
   24    -1.000000   180.000000     0.000000     0.707107     0.707107     0.000000     0.000000     0.000000
   25     1.000000   120.000000    -0.577350     0.577350     0.577350     0.000000     0.000000     0.000000
   26    -1.000000   120.000000    -0.577350     0.577350     0.577350     0.000000     0.000000     0.000000
   27     1.000000   120.000000    -0.577350     0.577350    -0.577350     0.000000     0.000000     0.000000
   28    -1.000000   120.000000    -0.577350     0.577350    -0.577350     0.000000     0.000000     0.000000
   29     1.000000   179.999999     0.000000     0.000000     1.000000     0.000000     0.000000     0.000000
   30    -1.000000   179.999999     0.000000     0.000000     1.000000     0.000000     0.000000     0.000000
   31     1.000000    90.000000    -1.000000     0.000000     0.000000     0.000000     0.000000     0.000000
   32    -1.000000    90.000000    -1.000000     0.000000     0.000000     0.000000     0.000000     0.000000
   33     1.000000   180.000000     0.707107     0.000000     0.707107     0.000000     0.000000     0.000000
   34    -1.000000   180.000000     0.707107     0.000000     0.707107     0.000000     0.000000     0.000000
   35     1.000000    90.000000     0.000000     0.000000     1.000000     0.000000     0.000000     0.000000
   36    -1.000000    90.000000     0.000000     0.000000     1.000000     0.000000     0.000000     0.000000
   37     1.000000   120.000000    -0.577350    -0.577350     0.577350     0.000000     0.000000     0.000000
   38    -1.000000   120.000000    -0.577350    -0.577350     0.577350     0.000000     0.000000     0.000000
   39     1.000000   180.000000     1.000000     0.000000     0.000000     0.000000     0.000000     0.000000
   40    -1.000000   180.000000     1.000000     0.000000     0.000000     0.000000     0.000000     0.000000
   41     1.000000   120.000000     0.577350    -0.577350     0.577350     0.000000     0.000000     0.000000
   42    -1.000000   120.000000     0.577350    -0.577350     0.577350     0.000000     0.000000     0.000000
   43     1.000000   180.000000     0.707107    -0.707107     0.000000     0.000000     0.000000     0.000000
   44    -1.000000   180.000000     0.707107    -0.707107     0.000000     0.000000     0.000000     0.000000
   45     1.000000   180.000000     0.707107     0.000000    -0.707107     0.000000     0.000000     0.000000
   46    -1.000000   180.000000     0.707107     0.000000    -0.707107     0.000000     0.000000     0.000000
   47     1.000000   180.000000     0.000000    -0.707107     0.707107     0.000000     0.000000     0.000000
   48    -1.000000   180.000000     0.000000    -0.707107     0.707107     0.000000     0.000000     0.000000

 I would recommend the setting:
   dimension x,y,z NGX =    15 NGY =   15 NGZ =   15
 SYSTEM =  FCC Silicon
 POSCAR =  FCC Silicon

 Startparameter for this run:
   NWRITE =      2    write-flag & timer
   PREC   = normal    normal or accurate (medium, high low for compatibility)
   ISTART =      0    job   : 0-new  1-cont  2-samecut
   ICHARG =      2    charge: 1-file 2-atom 10-const
   ISPIN  =      1    spin polarized calculation?
   LNONCOLLINEAR =      F non collinear calculations
   LSORBIT =      F    spin-orbit coupling
   INIWAV =      1    electr: 0-lowe 1-rand  2-diag
   LASPH  =      F    aspherical Exc in radial PAW
   METAGGA=      F    non-selfconsistent MetaGGA calc.

 Electronic Relaxation 1
   ENCUT  =  500.0 eV  36.75 Ry    6.06 a.u.   5.03  5.03  5.03*2*pi/ulx,y,z
   ENINI  =  500.0     initial cutoff
   ENAUG  =  322.1 eV  augmentation charge cutoff
   NELM   =    100;   NELMIN=  4; NELMDL= -5     # of ELM steps
   EDIFF  = 0.1E-05   stopping-criterion for ELM
   LREAL  =      F    real-space projection
   NLSPLINE    = F    spline interpolate recip. space projectors
   LCOMPAT=      F    compatible to vasp.4.4
   GGA_COMPAT  = T    GGA compatible to vasp.4.4-vasp.4.6
   LMAXPAW     = -100 max onsite density
   LMAXMIX     =    2 max onsite mixed and CHGCAR
   VOSKOWN=      0    Vosko Wilk Nusair interpolation
   ROPT   =    0.00000
 Ionic relaxation
   EDIFFG = 0.1E-04   stopping-criterion for IOM
   NSW    =      0    number of steps for IOM
   NBLOCK =      1;   KBLOCK =      1    inner block; outer block
   IBRION =     -1    ionic relax: 0-MD 1-quasi-New 2-CG
   NFREE  =      0    steps in history (QN), initial steepest desc. (CG)
   ISIF   =      2    stress and relaxation
   IWAVPR =     10    prediction:  0-non 1-charg 2-wave 3-comb
   ISYM   =      2    0-nonsym 1-usesym 2-fastsym
   LCORR  =      T    Harris-Foulkes like correction to forces

   POTIM  = 0.5000    time-step for ionic-motion
   TEIN   =    0.0    initial temperature
   TEBEG  =    0.0;   TEEND  =   0.0 temperature during run
   SMASS  =  -3.00    Nose mass-parameter (am)
   estimated Nose-frequenzy (Omega)   =  0.10E-29 period in steps =****** mass=  -0.174E-27a.u.
   SCALEE = 1.0000    scale energy and forces
   NPACO  =    256;   APACO  = 16.0  distance and # of slots for P.C.
   PSTRESS=    0.0 pullay stress

  Mass of Ions in am
   POMASS =  28.09
  Ionic Valenz
   ZVAL   =   4.00
  Atomic Wigner-Seitz radii
  virtual crystal weights
   VCA    =   1.00
   NELECT =       4.0000    total number of electrons
   NUPDOWN=      -1.0000    fix difference up-down

 DOS related values:
   EMIN   =  10.00;   EMAX   =-10.00  energy-range for DOS
   EFERMI =   0.00
   ISMEAR =     0;   SIGMA  =   0.10  broadening in eV -4-tet -1-fermi 0-gaus

 Electronic relaxation 2 (details)
   IALGO  =     38    algorithm
   LDIAG  =      T    sub-space diagonalisation (order eigenvalues)
   LSUBROT=      F    optimize rotation matrix (better conditioning)
   TURBO    =      0    0=normal 1=particle mesh
   IRESTART =      0    0=no restart 2=restart with 2 vectors
   NREBOOT  =      0    no. of reboots
   NMIN     =      0    reboot dimension
   EREF     =   0.00    reference energy to select bands
   IMIX   =      4    mixing-type and parameters
     AMIX     =   0.40;   BMIX     =  1.00
     AMIX_MAG =   1.60;   BMIX_MAG =  1.00
     AMIN     =   0.10
     WC   =   100.;   INIMIX=   1;  MIXPRE=   1;  MAXMIX= -45

 Intra band minimization:
   WEIMIN = 0.0000     energy-eigenvalue tresh-hold
[...]
 k-point  7 :   0.0303 0.0000 0.0303  plane waves:     351
 k-point  8 :   0.0354 0.0000 0.0354  plane waves:     351
 k-point  9 :   0.0404 0.0000 0.0404  plane waves:     351
 k-point 10 :   0.0455 0.0000 0.0455  plane waves:     351
 k-point 11 :   0.0505 0.0000 0.0505  plane waves:     351
 k-point 12 :   0.0556 0.0000 0.0556  plane waves:     351
 k-point 13 :   0.0606 0.0000 0.0606  plane waves:     355
 k-point 14 :   0.0657 0.0000 0.0657  plane waves:     355
 k-point 15 :   0.0707 0.0000 0.0707  plane waves:     355
 k-point 16 :   0.0758 0.0000 0.0758  plane waves:     355
 k-point 17 :   0.0808 0.0000 0.0808  plane waves:     355
 k-point 18 :   0.0859 0.0000 0.0859  plane waves:     355
 k-point 19 :   0.0909 0.0000 0.0909  plane waves:     355
 k-point 20 :   0.0960 0.0000 0.0960  plane waves:     359
 k-point 21 :   0.1010 0.0000 0.1010  plane waves:     359
 k-point 22 :   0.1061 0.0000 0.1061  plane waves:     359
 k-point 23 :   0.1111 0.0000 0.1111  plane waves:     359
 k-point 24 :   0.1162 0.0000 0.1162  plane waves:     359
 k-point 25 :   0.1212 0.0000 0.1212  plane waves:     359
 k-point 26 :   0.1263 0.0000 0.1263  plane waves:     371
 k-point 27 :   0.1313 0.0000 0.1313  plane waves:     371
 k-point 28 :   0.1364 0.0000 0.1364  plane waves:     371
 k-point 29 :   0.1414 0.0000 0.1414  plane waves:     371
 k-point 30 :   0.1465 0.0000 0.1465  plane waves:     371
 k-point 31 :   0.1515 0.0000 0.1515  plane waves:     371
 k-point 32 :   0.1566 0.0000 0.1566  plane waves:     367
 k-point 33 :   0.1616 0.0000 0.1616  plane waves:     367
 k-point 34 :   0.1667 0.0000 0.1667  plane waves:     367
 k-point 35 :   0.1717 0.0000 0.1717  plane waves:     367
 k-point 36 :   0.1768 0.0000 0.1768  plane waves:     367
 k-point 37 :   0.1818 0.0000 0.1818  plane waves:     367
 k-point 38 :   0.1869 0.0000 0.1869  plane waves:     367
 k-point 39 :   0.1919 0.0000 0.1919  plane waves:     367
 k-point 40 :   0.1970 0.0000 0.1970  plane waves:     367
 k-point 41 :   0.2020 0.0000 0.2020  plane waves:     367
 k-point 42 :   0.2071 0.0000 0.2071  plane waves:     367
 k-point 43 :   0.2121 0.0000 0.2121  plane waves:     367
 k-point 44 :   0.2172 0.0000 0.2172  plane waves:     367
 k-point 45 :   0.2222 0.0000 0.2222  plane waves:     367
 k-point 46 :   0.2273 0.0000 0.2273  plane waves:     367
 k-point 47 :   0.2323 0.0000 0.2323  plane waves:     367
 k-point 48 :   0.2374 0.0000 0.2374  plane waves:     375
 k-point 49 :   0.2424 0.0000 0.2424  plane waves:     375
 k-point 50 :   0.2475 0.0000 0.2475  plane waves:     375
 k-point 51 :   0.2525 0.0000 0.2525  plane waves:     375
 k-point 52 :   0.2576 0.0000 0.2576  plane waves:     375
 k-point 53 :   0.2626 0.0000 0.2626  plane waves:     371
 k-point 54 :   0.2677 0.0000 0.2677  plane waves:     371
 k-point 55 :   0.2727 0.0000 0.2727  plane waves:     371
 k-point 56 :   0.2778 0.0000 0.2778  plane waves:     371
 k-point 57 :   0.2828 0.0000 0.2828  plane waves:     371
 k-point 58 :   0.2879 0.0000 0.2879  plane waves:     371
 k-point 59 :   0.2929 0.0000 0.2929  plane waves:     371
 k-point 60 :   0.2980 0.0000 0.2980  plane waves:     371
[...]
 k-point 85 :   0.4242 0.0000 0.4242  plane waves:     379
 k-point 86 :   0.4293 0.0000 0.4293  plane waves:     379
 k-point 87 :   0.4343 0.0000 0.4343  plane waves:     379
 k-point 88 :   0.4394 0.0000 0.4394  plane waves:     379
 k-point 89 :   0.4444 0.0000 0.4444  plane waves:     379
 k-point 90 :   0.4495 0.0000 0.4495  plane waves:     380
 k-point 91 :   0.4545 0.0000 0.4545  plane waves:     380
 k-point 92 :   0.4596 0.0000 0.4596  plane waves:     380
 k-point 93 :   0.4646 0.0000 0.4646  plane waves:     380
 k-point 94 :   0.4697 0.0000 0.4697  plane waves:     388
 k-point 95 :   0.4747 0.0000 0.4747  plane waves:     388
 k-point 96 :   0.4798 0.0000 0.4798  plane waves:     388
 k-point 97 :   0.4848 0.0000 0.4848  plane waves:     388
 k-point 98 :   0.4899 0.0000 0.4899  plane waves:     388
 k-point 99 :   0.4949 0.0000 0.4949  plane waves:     388
 k-point ** :   0.5000 0.0000 0.5000  plane waves:     388
 k-point ** :   0.5000 0.0000 0.5000  plane waves:     388
 k-point ** :   0.5013 0.0025 0.5013  plane waves:     388
 k-point ** :   0.5025 0.0051 0.5025  plane waves:     388
 k-point ** :   0.5038 0.0076 0.5038  plane waves:     388
 k-point ** :   0.5051 0.0101 0.5051  plane waves:     388
 k-point ** :   0.5063 0.0126 0.5063  plane waves:     388
 k-point ** :   0.5076 0.0152 0.5076  plane waves:     388
 k-point ** :   0.5088 0.0177 0.5088  plane waves:     388
 k-point ** :   0.5101 0.0202 0.5101  plane waves:     388
 k-point ** :   0.5114 0.0227 0.5114  plane waves:     388
 k-point ** :   0.5126 0.0253 0.5126  plane waves:     388
 k-point ** :   0.5139 0.0278 0.5139  plane waves:     388
 k-point ** :   0.5152 0.0303 0.5152  plane waves:     387
 k-point ** :   0.5164 0.0328 0.5164  plane waves:     387
 k-point ** :   0.5177 0.0354 0.5177  plane waves:     381
 k-point ** :   0.5189 0.0379 0.5189  plane waves:     381
 k-point ** :   0.5202 0.0404 0.5202  plane waves:     381
 k-point ** :   0.5215 0.0429 0.5215  plane waves:     381
 k-point ** :   0.5227 0.0455 0.5227  plane waves:     381
 k-point ** :   0.5240 0.0480 0.5240  plane waves:     379
 k-point ** :   0.5253 0.0505 0.5253  plane waves:     379
 k-point ** :   0.5265 0.0530 0.5265  plane waves:     379
 k-point ** :   0.5278 0.0556 0.5278  plane waves:     379
 k-point ** :   0.5290 0.0581 0.5290  plane waves:     379
 k-point ** :   0.5303 0.0606 0.5303  plane waves:     379
 k-point ** :   0.5316 0.0631 0.5316  plane waves:     379
 k-point ** :   0.5328 0.0657 0.5328  plane waves:     379
 k-point ** :   0.5341 0.0682 0.5341  plane waves:     379
 k-point ** :   0.5354 0.0707 0.5354  plane waves:     379
 k-point ** :   0.5366 0.0732 0.5366  plane waves:     379
 k-point ** :   0.5379 0.0758 0.5379  plane waves:     379
 k-point ** :   0.5391 0.0783 0.5391  plane waves:     379
 k-point ** :   0.5404 0.0808 0.5404  plane waves:     379
 k-point ** :   0.5417 0.0833 0.5417  plane waves:     379
 k-point ** :   0.5429 0.0859 0.5429  plane waves:     379
 k-point ** :   0.5442 0.0884 0.5442  plane waves:     379
 k-point ** :   0.5455 0.0909 0.5455  plane waves:     379
 k-point ** :   0.5467 0.0934 0.5467  plane waves:     379
 k-point ** :   0.5480 0.0960 0.5480  plane waves:     379
 k-point ** :   0.5492 0.0985 0.5492  plane waves:     375
 k-point ** :   0.5505 0.1010 0.5505  plane waves:     375
 k-point ** :   0.5518 0.1035 0.5518  plane waves:     375
 k-point ** :   0.5530 0.1061 0.5530  plane waves:     375
 k-point ** :   0.5543 0.1086 0.5543  plane waves:     375
 k-point ** :   0.5556 0.1111 0.5556  plane waves:     375
 k-point ** :   0.5568 0.1136 0.5568  plane waves:     375
 k-point ** :   0.5581 0.1162 0.5581  plane waves:     375
 k-point ** :   0.5593 0.1187 0.5593  plane waves:     375
 k-point ** :   0.5606 0.1212 0.5606  plane waves:     375
 k-point ** :   0.5619 0.1237 0.5619  plane waves:     379
 k-point ** :   0.5631 0.1263 0.5631  plane waves:     379
 k-point ** :   0.5644 0.1288 0.5644  plane waves:     379
 k-point ** :   0.5657 0.1313 0.5657  plane waves:     379
 k-point ** :   0.5669 0.1338 0.5669  plane waves:     375
 k-point ** :   0.5682 0.1364 0.5682  plane waves:     375
 k-point ** :   0.5694 0.1389 0.5694  plane waves:     375
 k-point ** :   0.5707 0.1414 0.5707  plane waves:     375
 k-point ** :   0.5720 0.1439 0.5720  plane waves:     375
 k-point ** :   0.5732 0.1465 0.5732  plane waves:     375
[...]
 k-point ** :   0.5000 0.0354 0.5354  plane waves:     380
 k-point ** :   0.5000 0.0328 0.5328  plane waves:     380
 k-point ** :   0.5000 0.0303 0.5303  plane waves:     380
 k-point ** :   0.5000 0.0278 0.5278  plane waves:     386
 k-point ** :   0.5000 0.0253 0.5253  plane waves:     386
 k-point ** :   0.5000 0.0227 0.5227  plane waves:     386
 k-point ** :   0.5000 0.0202 0.5202  plane waves:     386
 k-point ** :   0.5000 0.0177 0.5177  plane waves:     388
 k-point ** :   0.5000 0.0152 0.5152  plane waves:     388
 k-point ** :   0.5000 0.0126 0.5126  plane waves:     388
 k-point ** :   0.5000 0.0101 0.5101  plane waves:     388
 k-point ** :   0.5000 0.0076 0.5076  plane waves:     388
 k-point ** :   0.5000 0.0051 0.5051  plane waves:     388
 k-point ** :   0.5000 0.0025 0.5025  plane waves:     388
 k-point ** :   0.5000 0.0000 0.5000  plane waves:     388

 maximum and minimum number of plane-waves per node :       388      339

 maximum number of plane-waves:       388
 maximum index in each direction:
   IXMAX=    4   IYMAX=    5   IZMAX=    4
   IXMIN=   -5   IYMIN=   -5   IZMIN=   -5

 WARNING: aliasing errors must be expected set NGX to  20 to avoid them
 WARNING: aliasing errors must be expected set NGY to  22 to avoid them
 WARNING: aliasing errors must be expected set NGZ to  20 to avoid them
 aliasing errors are usually negligible using standard VASP settings
 and one can safely disregard these warnings

 serial   3D FFT for wavefunctions
 parallel 3D FFT for charge:
    minimum data exchange during FFTs selected (reduces bandwidth)

 Broyden mixing: mesh for mixing (old mesh)
   NGX =  9   NGY =  9   NGZ =  9
  (NGX  = 32   NGY  = 32   NGZ  = 32)
  gives a total of    729 points

 initial charge density was supplied:
 charge density of overlapping atoms calculated
 number of electron       4.0000000 magnetization
 keeping initial charge density in first step

 Maximum index for augmentation-charges          475 (set IRDMAX)

 First call to EWALD:  gamma=   0.721
 Maximum number of real-space cells 3x 3x 3
 Maximum number of reciprocal cells 3x 3x 3

 FEWALD executed in parallel

----------------------------------------- Iteration    1(   1)  ---------------------------------------

 eigenvalue-minimisations  : 22480
 total energy-change (2. order) :-0.4412884E+01  (-0.1758432E+03)
 number of electron       4.0000000 magnetization
 augmentation part        4.0000000 magnetization

 Free energy of the ion-electron system (eV)
  alpha Z        PSCENC =         2.26996938
  Ewald energy   TEWEN  =      -135.42777035
  -Hartree energ DENC   =        -0.65300110
  -exchange      EXHF   =         0.00000000
  -V(xc)+E(xc)   XCENC  =        -8.87087552
  PAW double counting   =        32.97760406      -15.38426339
  entropy T*S    EENTRO =        -0.00137952
  eigenvalues    EBANDS =        17.61057541
  atomic energy  EATOM  =       103.06625672
  Solvation  Ediel_sol  =         0.00000000
  free energy    TOTEN  =        -4.41288432 eV

  energy without entropy =       -4.41150481  energy(sigma->0) =       -4.41219457

[...]

 Broyden mixing:
  rms(total) = 0.69884E-01    rms(broyden)= 0.69882E-01
  rms(prec ) = 0.28190E+00
  weight for this iteration     100.00

[...]

 eigenvalue-minimisations  : 22096
 total energy-change (2. order) : 0.1147940E-01  (-0.3748591E-03)
 number of electron       3.9999999 magnetization
 augmentation part       -0.2514729 magnetization

[...]

 eigenvalues of (default mixing * dielectric matrix)
  average eigenvalue GAMMA=   2.4609
  2.4609

[...]

 eigenvalue-minimisations  : 26624
 total energy-change (2. order) : 0.1412727E-04  (-0.2488509E-05)
 number of electron       3.9999999 magnetization
 augmentation part       -0.2546350 magnetization

 Broyden mixing:
  rms(total) = 0.39231E-03    rms(broyden)= 0.39224E-03
  rms(prec ) = 0.13397E-02
  weight for this iteration     100.00

 eigenvalues of (default mixing * dielectric matrix)
  average eigenvalue GAMMA=   2.0577
  1.1757  2.6957  2.3016

[...]

----------------------------------------- Iteration    1(   9)  ---------------------------------------

 eigenvalue-minimisations  : 27216
 total energy-change (2. order) :-0.7604163E-06  (-0.2081533E-07)
 number of electron       3.9999999 magnetization
 augmentation part       -0.2546350 magnetization

 Free energy of the ion-electron system (eV)
  alpha Z        PSCENC =         2.26996938
  Ewald energy   TEWEN  =      -135.42777035
  -Hartree energ DENC   =        -0.47977454
  -exchange      EXHF   =         0.00000000
  -V(xc)+E(xc)   XCENC  =        -8.82831321
  PAW double counting   =        33.79304322      -16.20429555
  entropy T*S    EENTRO =        -0.00153405
  eigenvalues    EBANDS =        16.46685408
  atomic energy  EATOM  =       103.06625672
  Solvation  Ediel_sol  =         0.00000000
  free energy    TOTEN  =        -5.34556431 eV

  energy without entropy =       -5.34403026  energy(sigma->0) =       -5.34479728

 average (electrostatic) potential at core
  the test charge radii are     0.9892
  (the norm of the test charge is              1.0000)
       1 -80.2151

 E-fermi :   9.4933     XC(G=0): -11.0957     alpha+bet :-16.1732

 k-point     1 :       0.0000    0.0000    0.0000
  band No.  band energies     occupation
      1      -4.3800      2.00000
      2      20.6960      0.00000
      3      20.6960      0.00000
      4      20.6960      0.00000
      5      21.6817      0.00000
      6      21.6817      0.00000
      7      21.6817      0.00000
      8      26.9540      0.00000
      9      28.3509      0.00000
     10      28.3509      0.00000
     11      31.6968      0.00000
     12      34.8591      0.00000
     13      34.8591      0.00000
     14      34.8591      0.00000
     15      41.9889      0.00000
     16      62.2402      0.00000

[...]

 k-point   600 :       0.5000    0.0000    0.5000
  band No.  band energies     occupation
      1       4.6096      2.00000
      2       5.3416      2.00000
      3      12.9693      0.00000
      4      12.9693      0.00000
      5      14.2884      0.00000
      6      16.5103      0.00000
      7      34.0935      0.00000
      8      35.6697      0.00000
      9      35.6697      0.00000
     10      42.5759      0.00000
     11      42.5759      0.00000
     12      43.3441      0.00000
     13      43.6761      0.00000
     14      45.1197      0.00000
     15      52.2678      0.00000
     16      52.4960      0.00000

 soft charge-density along one line, spin component           1
         0         1         2         3         4         5         6         7         8         9
 total charge-density along one line

------------------------ aborting loop because EDIFF is reached ----------------------------------------

  FORCE on cell =-STRESS in cart. coord.  units (eV):
  Direction    XX          YY          ZZ          XY          YZ          ZX
  Alpha Z     2.26997     2.26997     2.26997
  Ewald     -45.14259   -45.14259   -45.14259    -0.00000     0.00000    -0.00000
  Hartree     0.15992     0.15992     0.15992     0.00000     0.00000     0.00000
  E(xc)     -12.62914   -12.62914   -12.62914    -0.00000    -0.00000    -0.00000
  Local      -5.25244    -5.25244    -5.25244     0.00001     0.00001     0.00001
  n-local    36.77821    39.90321    40.28203    -0.31367    -0.39808    -0.44880
  augment    -6.48713    -6.48713    -6.48713    -0.00001    -0.00001    -0.00001
  Kinetic    44.36244    23.05781    16.15366     3.78085     6.72218     6.34030
  Fock        0.00000     0.00000     0.00000     0.00000     0.00000     0.00000
  Total      -0.23562    -0.23562    -0.23562     0.00000    -0.00000    -0.00000
  in kB     -25.45542   -25.45542   -25.45542     0.00000    -0.00000    -0.00000

 VOLUME and BASIS-vectors are now :
  energy-cutoff  :      500.00
  volume of cell :       14.83
      direct lattice vectors                 reciprocal lattice vectors
     1.950000000  1.950000000  0.000000000     0.256410256  0.256410256 -0.256410256
     0.000000000  1.950000000  1.950000000    -0.256410256  0.256410256  0.256410256
     1.950000000  0.000000000  1.950000000     0.256410256 -0.256410256  0.256410256

  length of vectors
     2.757716447  2.757716447  2.757716447     0.444115592  0.444115592  0.444115592

 FORCES acting on ions
    electron-ion (+dipol)            ewald-force                    non-local-force                 convergence-correction
   -.118E-14 -.618E-15 0.429E-15   0.262E-15 0.141E-15 0.191E-15   -.103E-24 -.310E-24 -.310E-24   -.166E-16 0.613E-18 0.490E-16
   -.118E-14 -.618E-15 0.429E-15   0.262E-15 0.141E-15 0.191E-15   -.103E-24 -.310E-24 -.310E-24   -.166E-16 0.613E-18 0.490E-16

 POSITION                                       TOTAL-FORCE (eV/Angst)
      0.00000      0.00000      0.00000        -0.000000      0.000000      0.000000
    total drift:                               -0.000000     -0.000000      0.000000

  FREE ENERGIE OF THE ION-ELECTRON SYSTEM (eV)
  free  energy   TOTEN  =        -5.34556431 eV

  energy  without entropy=       -5.34403026  energy(sigma->0) =       -5.34479728

 writing wavefunctions